<number of tasks>
53

<cycle time>
2806

<task times>
1 971
2 142
3 142
4 142
5 103
6 96
7 99
8 1207
9 160
10 180
11 82
12 60
13 112
14 420
15 1556
16 236
17 259
18 125
19 601
20 80
21 80
22 70
23 89
24 89
25 105
26 330
27 132
28 69
29 99
30 70
31 70
32 158
33 191
34 70
35 53
36 50
37 125
38 353
39 70
40 128
41 65
42 1775
43 91
44 91
45 113
46 487
47 138
48 80
49 80
50 65
51 40
52 742
53 1085

<precedence relations>
1,2
1,3
1,4
1,5
1,6
1,7
2,36
3,36
4,9
5,9
6,9
7,9
8,9
9,10
10,11
11,12
12,13
12,14
12,15
13,16
13,17
13,18
14,22
15,16
15,17
16,29
16,30
16,31
17,19
18,42
19,20
19,21
19,22
20,23
21,24
22,25
23,36
24,36
25,26
26,27
27,28
28,29
28,30
28,31
28,32
28,33
28,34
29,35
30,35
31,35
32,35
33,35
34,35
35,36
36,37
37,38
37,39
37,40
38,41
39,41
40,41
41,42
42,43
42,44
42,45
42,46
42,47
43,48
44,49
45,51
45,52
46,50
47,51
47,52
48,51
48,52
49,51
49,52
50,51
50,52
51,53
52,53

<setup times forward>
1,6:81
2,6:81
2,9:81
2,10:81
2,11:81
2,12:81
2,13:81
2,14:31
2,15:81
2,16:81
2,17:81
2,18:28
2,19:28
2,20:28
2,21:28
2,22:28
2,23:28
2,24:28
2,25:28
2,26:28
2,27:28
2,28:28
2,29:28
2,30:28
2,31:28
2,32:28
2,33:28
2,34:28
2,35:28
2,36:28
3,6:81
3,9:81
3,10:81
3,11:81
3,12:81
3,13:81
3,14:31
3,15:81
3,16:81
3,17:81
3,18:28
3,19:28
3,20:28
3,21:28
3,22:28
3,23:28
3,24:28
3,25:28
3,26:28
3,27:28
3,28:28
3,29:28
3,30:28
3,31:28
3,32:28
3,33:28
3,34:28
3,35:28
3,36:28
4,6:81
4,9:81
5,6:81
5,9:81
6,2:81
6,3:81
6,4:81
6,5:81
6,7:81
6,8:81
7,6:81
7,9:81
8,6:81
8,9:81
9,2:81
9,3:81
10,2:81
10,3:81
11,2:81
11,3:81
12,2:81
12,3:81
12,14:112
13,2:81
13,3:81
13,14:112
13,18:53
14,2:31
14,3:31
14,13:112
14,15:112
14,16:112
14,17:112
14,18:59
14,19:59
14,20:59
14,21:59
14,22:59
14,23:59
14,24:59
15,2:81
15,3:81
15,14:112
15,18:53
16,2:81
16,3:81
16,14:112
16,18:53
16,19:53
16,20:53
16,21:53
16,22:53
16,23:53
16,24:53
16,25:53
16,26:53
16,27:53
16,28:53
16,29:53
16,30:53
16,31:53
16,32:53
16,33:53
16,34:53
17,2:81
17,3:81
17,14:112
17,18:53
17,19:53
18,2:28
18,3:28
18,14:59
18,15:53
18,16:53
18,17:53
18,38:9
18,39:9
18,40:9
18,41:9
18,42:9
19,2:28
19,3:28
19,14:59
19,16:53
20,2:28
20,3:28
20,14:59
20,16:53
21,2:28
21,3:28
21,14:59
21,16:53
22,2:28
22,3:28
22,16:53
23,2:28
23,3:28
23,14:59
23,16:53
24,2:28
24,3:28
24,14:59
24,16:53
25,2:28
25,3:28
25,16:53
26,2:28
26,3:28
26,16:53
27,2:28
27,3:28
27,16:53
28,2:28
28,3:28
28,16:53
29,2:28
29,3:28
30,2:28
30,3:28
31,2:28
31,3:28
32,2:28
32,3:28
32,16:53
33,2:28
33,3:28
33,16:53
34,2:28
34,3:28
34,16:53
35,2:28
35,3:28
37,38:9
37,39:9
37,40:9
38,18:9
39,18:9
40,18:9
41,18:9
42,46:64
42,47:64
43,46:64
43,47:64
43,48:64
43,49:64
43,50:64
44,46:64
44,47:64
44,48:64
44,49:64
44,50:64
45,46:64
45,47:64
45,48:64
45,49:64
45,50:64
45,51:64
45,52:64
46,43:64
46,44:64
46,45:64
47,43:64
47,44:64
47,45:64
48,44:64
48,45:64
49,43:64
49,45:64
50,43:64
50,44:64
50,45:64

<setup times backward>
2,14:31
3,14:31
6,1:81
6,2:81
6,3:81
6,4:81
6,5:81
6,7:81
6,8:81
9,1:81
9,2:81
9,3:81
9,4:81
9,5:81
9,7:81
9,8:81
10,1:81
10,2:81
10,3:81
10,4:81
10,5:81
10,7:81
10,8:81
11,1:81
11,2:81
11,3:81
11,4:81
11,5:81
11,7:81
11,8:81
12,1:81
12,2:81
12,3:81
12,4:81
12,5:81
12,7:81
12,8:81
13,1:81
13,2:81
13,3:81
13,4:81
13,5:81
13,7:81
13,8:81
13,14:112
15,1:81
15,2:81
15,3:81
15,4:81
15,5:81
15,7:81
15,8:81
15,14:112
15,18:53
16,1:81
16,2:81
16,3:81
16,4:81
16,5:81
16,7:81
16,8:81
16,14:112
16,18:53
16,19:53
16,20:53
16,21:53
16,22:53
16,23:53
16,24:53
16,25:53
16,26:53
16,27:53
16,28:53
16,32:53
16,33:53
16,34:53
17,1:81
17,2:81
17,3:81
17,4:81
17,5:81
17,7:81
17,8:81
17,14:112
17,18:53
18,1:28
18,2:28
18,3:28
18,4:28
18,5:28
18,7:28
18,8:28
18,14:59
18,38:9
18,39:9
18,40:9
18,41:9
19,1:28
19,2:28
19,3:28
19,4:28
19,5:28
19,7:28
19,8:28
19,14:59
20,1:28
20,2:28
20,3:28
20,4:28
20,5:28
20,7:28
20,8:28
20,14:59
21,1:28
21,2:28
21,3:28
21,4:28
21,5:28
21,7:28
21,8:28
21,14:59
22,1:28
22,2:28
22,3:28
22,4:28
22,5:28
22,7:28
22,8:28
22,14:59
23,1:28
23,2:28
23,3:28
23,4:28
23,5:28
23,7:28
23,8:28
23,14:59
24,1:28
24,2:28
24,3:28
24,4:28
24,5:28
24,7:28
24,8:28
24,14:59
25,1:28
25,2:28
25,3:28
25,4:28
25,5:28
25,7:28
25,8:28
25,14:59
26,1:28
26,2:28
26,3:28
26,4:28
26,5:28
26,7:28
26,8:28
26,14:59
27,1:28
27,2:28
27,3:28
27,4:28
27,5:28
27,7:28
27,8:28
27,14:59
28,1:28
28,2:28
28,3:28
28,4:28
28,5:28
28,7:28
28,8:28
28,14:59
29,1:28
29,2:28
29,3:28
29,4:28
29,5:28
29,7:28
29,8:28
29,14:59
30,1:28
30,2:28
30,3:28
30,4:28
30,5:28
30,7:28
30,8:28
30,14:59
31,1:28
31,2:28
31,3:28
31,4:28
31,5:28
31,7:28
31,8:28
31,14:59
32,1:28
32,2:28
32,3:28
32,4:28
32,5:28
32,7:28
32,8:28
32,14:59
33,1:28
33,2:28
33,3:28
33,4:28
33,5:28
33,7:28
33,8:28
33,14:59
34,1:28
34,2:28
34,3:28
34,4:28
34,5:28
34,7:28
34,8:28
34,14:59
35,1:28
35,2:28
35,3:28
35,4:28
35,5:28
35,7:28
35,8:28
35,14:59
36,1:28
36,2:28
36,3:28
36,4:28
36,5:28
36,7:28
36,8:28
36,14:59
37,1:28
37,2:28
37,3:28
37,4:28
37,5:28
37,7:28
37,8:28
37,14:59
38,1:19
38,2:19
38,3:19
38,4:19
38,5:19
38,7:19
38,8:19
38,14:50
39,1:19
39,2:19
39,3:19
39,4:19
39,5:19
39,7:19
39,8:19
39,14:50
40,1:19
40,2:19
40,3:19
40,4:19
40,5:19
40,7:19
40,8:19
40,14:50
41,1:19
41,2:19
41,3:19
41,4:19
41,5:19
41,7:19
41,8:19
41,14:50
42,1:19
42,2:19
42,3:19
42,4:19
42,5:19
42,7:19
42,8:19
42,14:50
43,1:19
43,2:19
43,3:19
43,4:19
43,5:19
43,7:19
43,8:19
43,14:50
43,46:64
43,47:64
43,49:64
43,50:64
44,1:19
44,2:19
44,3:19
44,4:19
44,5:19
44,7:19
44,8:19
44,14:50
44,46:64
44,47:64
44,48:64
44,50:64
45,1:19
45,2:19
45,3:19
45,4:19
45,5:19
45,7:19
45,8:19
45,14:50
45,46:64
45,47:64
45,48:64
45,49:64
45,50:64

<end>

<optimal SALBP-1 value>
6


<rand seed>
467321153

<Lower Bounds>
Lm1=5
Lms1=5
Lm2=2
Lm3=3
Lm4=5
Best=5

<Optimal Stations (Iterations: 10)>
6
